20 43
1 2 3
1 3 5
1 4 1
1 5 1
2 3 2
2 4 5
2 5 5
3 4 5
3 5 4
4 5 4
5 6 5
6 7 1
6 8 5
6 9 4
6 10 3
7 8 1
7 9 3
7 10 3
8 9 5
8 10 5
9 10 5
10 11 3
11 12 3
11 13 2
11 14 5
11 15 4
12 13 1
12 14 5
12 15 3
13 14 5
13 15 1
14 15 4
15 16 2
16 17 1
16 18 4
16 19 1
16 20 1
17 18 3
17 19 5
17 20 3
18 19 1
18 20 3
19 20 1
